(declare-fun temp5490_1 () (_ BitVec 64))
(declare-fun temp5490_2 () (_ BitVec 64))
(declare-fun var82411 () (_ BitVec 64))
(declare-fun k!0 () Bool)
(declare-fun ARGNAME_input_NAMEEND_DIM () (_ BitVec 64))
(declare-fun temp5490_3 () (_ BitVec 64))
(declare-fun var82440 () (_ BitVec 64))
(declare-fun var82441 () (_ BitVec 64))
(declare-fun temp5490_4 () (_ BitVec 64))
(declare-fun ARGNAME_sections_NAMEEND () (_ BitVec 64))
(declare-fun var82444 () (_ BitVec 64))
(declare-fun temp5490_5 () (_ BitVec 64))
(declare-fun var82455 () (_ BitVec 64))
(declare-fun temp5490_6 () (_ BitVec 64))
(declare-fun temp5490_7 () (_ BitVec 64))
(declare-fun ARGNAME_input_NAMEEND_DIMSIZE
             ()
             (Array (_ BitVec 64) (_ BitVec 64)))
(declare-fun temp5490_8 () (_ BitVec 64))
(declare-fun temp5490_9 () (_ BitVec 64))
(declare-fun temp5490_10 () (_ BitVec 64))
(declare-fun temp5490_11 () (_ BitVec 64))
(declare-fun temp5490_12 () (_ BitVec 64))
(declare-fun temp5490_13 () (_ BitVec 64))
(declare-fun temp5490_14 () (_ BitVec 64))
(declare-fun temp5490_15 () (_ BitVec 64))
(declare-fun temp5490_16 () (_ BitVec 64))
(declare-fun temp5490_17 () (_ BitVec 64))
(declare-fun temp5490_18 () (_ BitVec 64))
(declare-fun temp5490_19 () (_ BitVec 64))
(declare-fun temp5490_20 () (_ BitVec 64))
(declare-fun temp5490_21 () (_ BitVec 64))
(declare-fun temp5490_22 () (_ BitVec 64))
(declare-fun temp5490_23 () (_ BitVec 64))
(declare-fun temp5490_25 () (_ BitVec 64))
(declare-fun temp5490_26 () (_ BitVec 64))
(declare-fun temp5490_24 () (_ BitVec 64))
(declare-fun var82459 () (_ BitVec 64))
(declare-fun temp5490_27 () (_ BitVec 64))
(declare-fun var82460 () (_ BitVec 64))
(declare-fun temp5490_28 () (_ BitVec 64))
(declare-fun var82496 () (_ BitVec 64))
(declare-fun var140605 () (_ BitVec 64))
(declare-fun temp5490_29 () (_ BitVec 64))
(declare-fun var140635 () (_ BitVec 64))
(declare-fun temp5490_30 () (_ BitVec 64))
(declare-fun temp5490_31 () (_ BitVec 64))
(declare-fun var140664 () (_ BitVec 64))
(declare-fun temp5490_32 () (_ BitVec 64))
(declare-fun temp5490_34 () (_ BitVec 64))
(declare-fun temp5490_33 () (_ BitVec 64))
(declare-fun temp5490_36 () (_ BitVec 64))
(declare-fun temp5490_35 () (_ BitVec 64))
(declare-fun var462146 () (_ BitVec 64))
(declare-fun temp5490_37 () (_ BitVec 64))
(declare-fun temp5490_38 () (_ BitVec 64))
(declare-fun var527687 () (_ BitVec 64))
(declare-fun var593234 () (_ BitVec 64))
(declare-fun temp5490_39 () (_ BitVec 64))
(declare-fun var1130139 () (_ BitVec 64))
(declare-fun temp5490_40 () (_ BitVec 64))
(declare-fun var1130188 () (_ BitVec 64))
(declare-fun temp5490_41 () (_ BitVec 64))
(declare-fun temp5490_42 () (_ BitVec 64))
(declare-fun var1380938 () (_ BitVec 64))
(declare-fun temp5490_43 () (_ BitVec 64))
(declare-fun var2101834 () (_ BitVec 64))
(declare-fun temp5490_44 () (_ BitVec 64))
(declare-fun var1130297 () (_ BitVec 64))
(declare-fun temp5490_45 () (_ BitVec 64))
(declare-fun var1130305 () (_ BitVec 64))
(declare-fun temp5490_46 () (_ BitVec 64))
(declare-fun temp5490_47 () (_ BitVec 64))
(declare-fun var1130340 () (_ BitVec 64))
(declare-fun temp5490_48 () (_ BitVec 64))
(declare-fun var1130348 () (_ BitVec 64))
(declare-fun temp5490_49 () (_ BitVec 64))
(declare-fun var1130358 () (_ BitVec 64))
(declare-fun temp5490_50 () (_ BitVec 64))
(declare-fun var1130369 () (_ BitVec 64))
(declare-fun temp5490_51 () (_ BitVec 64))
(declare-fun var1130393 () (_ BitVec 64))
(declare-fun var1130394 () (_ BitVec 64))
(declare-fun temp5490_52 () (_ BitVec 64))
(declare-fun var3291804 () (_ BitVec 64))
(declare-fun var3291805 () (_ BitVec 64))
(declare-fun var3291808 () (_ BitVec 64))
(declare-fun temp5490_53 () (_ BitVec 64))
(declare-fun temp5490_54 () (_ BitVec 64))
(declare-fun var3941241 () (_ BitVec 64))
(declare-fun var3941245 () (_ BitVec 64))
(declare-fun temp5490_55 () (_ BitVec 64))
(declare-fun temp5490_56 () (_ BitVec 64))
(declare-fun var4268921 () (_ BitVec 64))
(declare-fun var4268925 () (_ BitVec 64))
(declare-fun var3291969 () (_ BitVec 64))
(declare-fun temp5490_58 () (_ BitVec 64))
(declare-fun temp5490_57 () (_ BitVec 64))
(assert (= temp5490_1 #x0000000000000001))
(assert (= var82411
   (ite (bvslt ARGNAME_input_NAMEEND_DIM temp5490_1)
        #x0000000000000001
        #x0000000000000000)))
(assert (= temp5490_2 #x0000000000000000))
(assert (= var82411 temp5490_2))
(assert (= temp5490_3 #x0000000000000001))
(assert (= var82440
   (ite (distinct ARGNAME_input_NAMEEND_DIM temp5490_3)
        #x0000000000000001
        #x0000000000000000)))
(assert (= var82441 var82440))
(assert (= temp5490_4 #x0000000000000000))
(assert (= var82444
   (ite (= ARGNAME_sections_NAMEEND temp5490_4)
        #x0000000000000001
        #x0000000000000000)))
(assert (= temp5490_5 #x0000000000000000))
(assert (= var82444 temp5490_5))
(assert (= var82455 var82441))
(assert (= temp5490_6 #x0000000000000000))
(assert (= temp5490_7 temp5490_6))
(assert (= temp5490_8 (select ARGNAME_input_NAMEEND_DIMSIZE temp5490_7)))
(assert (= temp5490_9 #x0000000000000001))
(assert (= temp5490_10 temp5490_9))
(assert (= temp5490_11 (select ARGNAME_input_NAMEEND_DIMSIZE temp5490_10)))
(assert (= temp5490_12 #x0000000000000002))
(assert (= temp5490_13 temp5490_12))
(assert (= temp5490_14 (select ARGNAME_input_NAMEEND_DIMSIZE temp5490_13)))
(assert (= temp5490_15 #x0000000000000003))
(assert (= temp5490_16 temp5490_15))
(assert (= temp5490_17 (select ARGNAME_input_NAMEEND_DIMSIZE temp5490_16)))
(assert (= temp5490_18 #x0000000000000004))
(assert (= temp5490_19 temp5490_18))
(assert (= temp5490_20 (select ARGNAME_input_NAMEEND_DIMSIZE temp5490_19)))
(assert (= temp5490_21 #x0000000000000005))
(assert (= temp5490_22 temp5490_21))
(assert (= temp5490_23 (select ARGNAME_input_NAMEEND_DIMSIZE temp5490_22)))
(assert (= temp5490_25 var82455))
(assert (= temp5490_26 (select ARGNAME_input_NAMEEND_DIMSIZE temp5490_25)))
(assert (= temp5490_24 temp5490_26))
(assert (= var82459 (bvsmod temp5490_24 ARGNAME_sections_NAMEEND)))
(assert (= temp5490_27 #x0000000000000000))
(assert (= var82460
   (ite (= var82459 temp5490_27) #x0000000000000001 #x0000000000000000)))
(assert (= temp5490_28 #x0000000000000001))
(assert (= var82460 temp5490_28))
(assert (= var82496 var82441))
(assert (= var140605 var82496))
(assert (= temp5490_29 #x0000000000000001))
(assert (= var140635
   (ite (bvslt ARGNAME_input_NAMEEND_DIM temp5490_29)
        #x0000000000000001
        #x0000000000000000)))
(assert (= temp5490_30 #x0000000000000000))
(assert (= var140635 temp5490_30))
(assert (= temp5490_31 #x0000000000000001))
(assert (= var140664
   (ite (bvslt ARGNAME_sections_NAMEEND temp5490_31)
        #x0000000000000001
        #x0000000000000000)))
(assert (= temp5490_32 #x0000000000000000))
(assert (= var140664 temp5490_32))
(assert (= temp5490_34 #x0000000000000000))
(assert (= temp5490_33 temp5490_34))
(assert (= temp5490_36 #x0000000000000000))
(assert (= temp5490_35 temp5490_36))
(assert (= var462146
   (ite (bvslt temp5490_35 ARGNAME_sections_NAMEEND)
        #x0000000000000001
        #x0000000000000000)))
(assert (= temp5490_37
   (ite (= var462146 #x0000000000000001) ARGNAME_sections_NAMEEND temp5490_35)))
(assert (= temp5490_38 #x0000000000000000))
(assert (= var527687 temp5490_38))
(assert (= var593234 var527687))
(assert (= temp5490_39 #x0000000000000001))
(assert (= var1130139 temp5490_39))
(assert (= temp5490_40 #x0000000000000000))
(assert (= var1130188
   (ite (= ARGNAME_input_NAMEEND_DIM temp5490_40)
        #x0000000000000001
        #x0000000000000000)))
(assert (= temp5490_41 #x0000000000000000))
(assert (= var1130188 temp5490_41))
(assert (= temp5490_42 #x0000000000000005))
(assert (= var1380938 temp5490_42))
(assert (= temp5490_43 #x0000000000000005))
(assert (= var2101834 temp5490_43))
(assert (= temp5490_44 #x0000000000000000))
(assert (= var1130297 temp5490_44))
(assert (= temp5490_45 #x0000000000000001))
(assert (= var1130305
   (ite (bvslt var1130139 temp5490_45) #x0000000000000001 #x0000000000000000)))
(assert (= temp5490_46 #x0000000000000000))
(assert (= var1130305 temp5490_46))
(assert (= temp5490_47 #x0000000000000000))
(assert (= var1130340
   (ite (bvslt var1130297 temp5490_47) #x0000000000000001 #x0000000000000000)))
(assert (= temp5490_48 #x0000000000000000))
(assert (= var1130340 temp5490_48))
(assert (= var1130348 var1130297))
(assert (= temp5490_49 #x0000000000000000))
(assert (= var1130358
   (ite (bvslt var1130348 temp5490_49) #x0000000000000001 #x0000000000000000)))
(assert (= temp5490_50 #x0000000000000000))
(assert (= var1130358 temp5490_50))
(assert (= var1130369 var1130348))
(assert (= temp5490_51 #xffffffffffffffff))
(assert (= var1130393 (bvxor var1130369 temp5490_51)))
(assert (= var1130394 (bvadd var1130393 var1130139)))
(assert (= temp5490_52 #x0000000000000000))
(assert (= var3291804 temp5490_52))
(assert (= var3291805 var1130369))
(assert (= var3291808 var1130139))
(assert (= temp5490_53 #x0000000000000000))
(assert (= var3291804 temp5490_53))
(assert (= temp5490_54 #x0000000000000000))
(assert (= var3941241 temp5490_54))
(assert (= var3941245 var3291808))
(assert (= temp5490_55 #x0000000000000000))
(assert (= var3291804 temp5490_55))
(assert (= temp5490_56 #x0000000000000000))
(assert (= var4268921 temp5490_56))
(assert (= var4268925 var3291808))
(assert (= var3291969 var3291804))
(assert (= temp5490_58 #x0000000000000000))
(assert (= temp5490_57 temp5490_58))
(model-add temp5490_1 () (_ BitVec 64) #x0000000000000001)
(model-add temp5490_2 () (_ BitVec 64) #x0000000000000000)
(model-add var82411 () (_ BitVec 64) #x0000000000000000)
(model-del k!0)
(model-add ARGNAME_input_NAMEEND_DIM
           ()
           (_ BitVec 64)
           (ite (or k!0 (= #x0000000000000001 #x8000000000000000))
                #x0000000000000001
                (bvsub #x0000000000000001 #x0000000000000001)))





